
param dist_min:= 15; # minimum difference between two selected cells (wind parks)
param min_w:= 0.05; # minimum weight on a selected cell
param max_w:= 0.4; # maximum weight on a selected cell
param maxLoc:= 10; # maximum number of selected cells (non-zero weights)
param WPSS_min:= 0.65; # minimum WPSS score for selected cells
param DistNW_min:= 15; # minimum distance to Norway for selected cells

param MaxLocs :=
1	5
2	10
3	20
;
